126
0 1 7 22 91 61 18 67 94 20 
87 114 40 97 109 99 41 50 33 51 
121 24 103 26 72 95 37 39 73 23 
8 110 4 101 57 28 98 30 27 54 
70 10 2 108 25 35 46 120 90 13 
44 16 48 80 89 96 60 74 106 3 
45 78 117 83 56 125 19 32 53 116 
71 49 17 65 118 34 43 111 105 93 
122 84 82 5 113 123 100 102 77 36 
42 14 11 104 107 86 12 15 63 85 
52 75 9 76 6 55 119 115 21 112 
58 62 92 88 81 124 79 59 31 66 
69 68 64 38 47 29 
